
Gurobi 11.0.0 (win64) logging started Fri May  3 16:47:12 2024

Set parameter LogFile to value "./Results/StripPacking-CutHeurRuns/Logs/SBM-011-StripPacking-10.log"
Set parameter TimeLimit to value 10800
Set parameter Cuts to value 0
Set parameter Presolve to value 1
Set parameter Heuristics to value 1
Set parameter LPWarmStart to value 2
Gurobi Optimizer version 11.0.0 build v11.0.0rc2 (win64 - Windows 10.0 (19045.2))

CPU model: Intel(R) Core(TM) i9-10980XE CPU @ 3.00GHz, instruction set [SSE2|AVX|AVX2|AVX512]
Thread count: 18 physical cores, 36 logical processors, using up to 18 threads

Optimize a model with 820 rows, 156 columns and 2450 nonzeros
Model fingerprint: 0x5c63ba5c
Variable types: 66 continuous, 90 integer (90 binary)
Coefficient statistics:
  Matrix range     [1e+00, 1e+04]
  Objective range  [1e+00, 1e+00]
  Bounds range     [1e+00, 1e+04]
  RHS range        [1e+00, 1e+04]

User MIP start produced solution with objective 50 (0.00s)
Loaded user MIP start with objective 50

Presolve removed 225 rows and 0 columns
Presolve time: 0.01s
Presolved: 595 rows, 156 columns, 1865 nonzeros
Variable types: 66 continuous, 90 integer (90 binary)

Root relaxation: objective 3.500000e+01, 92 iterations, 0.00 seconds (0.00 work units)

    Nodes    |    Current Node    |     Objective Bounds      |     Work
 Expl Unexpl |  Obj  Depth IntInf | Incumbent    BestBd   Gap | It/Node Time

     0     0   35.00000    0    7   50.00000   35.00000  30.0%     -    0s
     0     0   35.00000    0    6   50.00000   35.00000  30.0%     -    0s
H    0     0                      46.0000000   35.00000  23.9%     -    0s
     0     2   35.00000    0    6   46.00000   35.00000  23.9%     -    0s
H  105   127                      45.0000000   35.00000  22.2%   9.4    0s
H  139   157                      42.0000000   35.00000  16.7%   9.2    0s
H  359   354                      41.0000000   35.00000  14.6%   7.6    0s
H 1000   518                      41.0000000   35.00000  14.6%   6.4    0s
H 3869  1005                      39.0000000   35.00000  10.3%   5.5    1s

Explored 8394 nodes (46917 simplex iterations) in 2.27 seconds (1.57 work units)
Thread count was 18 (of 36 available processors)

Solution count 7: 39 41 41 ... 50

Optimal solution found (tolerance 1.00e-04)
Best objective 3.900000000000e+01, best bound 3.900000000000e+01, gap 0.0000%
